NAME : amz0324.111761_108761.tour
COMMENT : Cost = 111761_108761
COMMENT : Found by LKH-AMZ [Keld Helsgaun] Sun May 11 12:24:58 2025
COMMENT : TW viol.: 0 #: 0
TYPE : TOUR
DIMENSION : 179
TOUR_SECTION
75
91
128
24
97
76
81
131
171
139
119
69
22
80
129
142
133
144
130
47
12
122
154
8
23
114
159
19
30
167
175
78
1
109
148
168
63
34
176
104
18
172
3
10
53
43
152
107
161
6
56
141
137
177
48
39
157
60
55
13
74
20
40
153
9
170
113
49
110
143
147
7
108
21
158
162
5
126
132
86
82
105
90
173
50
111
166
28
136
116
27
79
118
117
103
51
165
85
84
115
29
88
45
61
124
44
96
174
169
26
151
65
127
64
146
4
87
67
89
16
70
68
92
125
178
164
41
59
102
156
179
98
25
33
52
57
149
99
31
58
37
62
83
138
106
36
14
73
38
93
121
94
77
101
15
17
95
66
72
46
11
35
140
42
163
145
135
150
71
54
120
134
160
2
100
32
155
123
112
-1
EOF
